Minimize
  5 x_blueberries + 7 x_strawberries
Subject To
  c1: 3 x_blueberries + 1 x_strawberries >= 90
  c2: 5 x_blueberries + 7 x_strawberries >= 100
  c3: x_strawberries - 3.0 x_blueberries >= 0
Integer
  x_blueberries x_strawberries
End